============================[ Problem Statistics ]=============================|                                                                             ||  Number of variables:          4242                                         ||  Number of clauses:           10138                                         ||  Parse time:                   0.54 s                                       ||                                                                             |============================[ Search Statistics ]==============================| Conflicts |          ORIGINAL         |          LEARNT          | Progress ||           |    Vars  Clauses Literals |    Limit  Clauses Lit/Cl |          |===============================================================================|       100 |    1591     6343   839114 |     2325      100     53 | 62.501 % ||       250 |    1591     6343   839114 |     2558      250     75 | 62.495 % |===============================================================================restarts              : 3conflicts             : 293            (363 /sec)decisions             : 556            (0.00 % random) (688 /sec)propagations          : 11837          (14650 /sec)conflict literals     : 22992          (94.76 % deleted)CPU time              : 0.808 sSATISFIABLE